[[77, 78, 79, 88, 89, 90, 99, 98, 97, 87, 96, 86, 95, 94, 93, 92], [91, 82, 83, 84, 85, 76, 75, 73, 74, 64, 65, 66, 67, 68], [59, 58, 60, 49, 57, 56, 55, 46, 47, 38, 48, 39, 40, 50, 41, 32], [31, 30, 29, 37, 28, 19, 20, 21, 22, 13, 12, 11, 10, 2], [3, 4, 14, 5, 6, 7, 8, 9, 18, 17, 16], [15, 23, 24, 25, 26, 27, 35, 36, 44, 34, 33, 43, 42], [51, 52, 53, 45, 54, 63, 62, 61, 71, 72, 81, 80, 70, 69]]